
  19    0


   0   9 2 4 5 13 14 15 16 17 18 
  10   6 12 11 10 9 7 3 
   2   2 8 6 
  10   2 7 6 
   6   1 6 
  10   1 19
  10   1 19
   9   1 19
   8   1 19
   7   1 19
   5   1 19
   5   1 19
   7   1 19
   8   1 19
   1   1 19
   7   1 19
   8   1 19
   3   1 19
   0   0 
